(set-logic HORN)
(declare-fun state (Int Int Int (Array Int Int) Int Int Int Int Int (Array Int Int) Bool Int (Array Int Int) Int Int) Bool)
(assert (forall ((|F_13| Int) (|E_13| Int) (|C_13| Int) (|I_0| (Array Int Int)) (|A_13| Int) (|B_13| Int) (|G_13| Int) (|H_13| Int) (|D_13| Int) (|J_0| (Array Int Int)) (|.loc.100| Bool) (|F_0| Int) (|G_0| (Array Int Int)) (|H_0| Int) (|E_0| Int) (|.loc.111| Bool) (|.y.110| (Array Int Int)) (|.y.104| (Array Int Int)) (|.y.105| Int) (|.y.103| Int) (|.y.101| Int) (|.y.102| Int) (|.y.107| Int) (|.y.109| Int) (|.y.108| Int) (|.y.106| Int) (|.xiv.1| Int) (|.xiv.2| (Array Int Int)) (|.xiv.3| Int) (|.xiv.4| Int)) (=> (let ((.def_28 (select J_0 (+ G_13 (- 1))))) (let ((.def_35 (select J_0 (+ H_13 (- 1))))) (let ((.def_41 (select I_0 (+ E_13 (- 1))))) (let ((.def_68 (select G_0 F_0))) (let ((.def_69 (= .def_68 0))) (let ((.def_70 (not .def_69))) (let ((.def_71 (select G_0 H_0))) (let ((.def_72 (= .def_68 .def_71))) (let ((.def_77 (<= (ite (<= 0 E_0) E_0 (* (- 1) E_0)) 0))) (let ((.def_78 (not .def_77))) (let ((.def_79 (and (and .def_70 .def_72) .def_78))) (let ((.def_81 (not (= E_0 0)))) (let ((.def_83 (not .def_72))) (let ((.def_86 (= .def_71 0))) (let ((.def_93 (select G_0 E_0))) (let ((.def_119 (and .def_69 .def_72))) (or (and (and (and (and (and (and (and (and (and (and (and (and (not (= .def_28 0)) (not .loc.100)) (= .def_28 .def_35)) (= (select I_0 (+ F_13 (- 1))) .def_41)) (not (= .def_41 0))) (= B_13 .def_35)) (= E_13 G_13)) (= F_13 H_13)) (= A_13 .def_28)) (= I_0 J_0)) (not (<= (ite (<= 0 D_13) D_13 (* (- 1) D_13)) 0))) (= C_13 D_13)) (not (= C_13 0))) (and .loc.100 (or (or (or (or (or (or (and (and .def_79 .def_81) (or .def_69 .def_83)) (and (not .def_86) (and .def_86 (and (not (<= (ite (<= 0 F_0) F_0 (* (- 1) F_0)) 0)) (and (= .def_71 .def_93) (not (= F_0 0))))))) (and .def_81 (and .def_79 .def_83))) (and (= .def_68 .def_93) (and (<= (ite (<= 0 H_0) H_0 (* (- 1) H_0)) 0) (and .def_70 (not (= H_0 0)))))) (and .def_81 (and .def_77 .def_83))) (and .def_81 (and .def_83 (and .def_78 .def_119)))) (and .def_81 (and .def_83 (and .def_78 (and .def_70 .def_119))))))))))))))))))))))) (state |F_13| |E_13| |C_13| |I_0| |A_13| |B_13| |G_13| |H_13| |D_13| |J_0| |.loc.100| |F_0| |G_0| |H_0| |E_0|))))
(assert (forall ((|F_13| Int) (|E_13| Int) (|C_13| Int) (|I_0| (Array Int Int)) (|A_13| Int) (|B_13| Int) (|G_13| Int) (|H_13| Int) (|D_13| Int) (|J_0| (Array Int Int)) (|.loc.100| Bool) (|F_0| Int) (|G_0| (Array Int Int)) (|H_0| Int) (|E_0| Int) (|.loc.111| Bool) (|.y.110| (Array Int Int)) (|.y.104| (Array Int Int)) (|.y.105| Int) (|.y.103| Int) (|.y.101| Int) (|.y.102| Int) (|.y.107| Int) (|.y.109| Int) (|.y.108| Int) (|.y.106| Int) (|.xiv.1| Int) (|.xiv.2| (Array Int Int)) (|.xiv.3| Int) (|.xiv.4| Int)) (=> (and (state |F_13| |E_13| |C_13| |I_0| |A_13| |B_13| |G_13| |H_13| |D_13| |J_0| |.loc.100| |F_0| |G_0| |H_0| |E_0|) (let ((.def_131 (select J_0 H_13))) (let ((.def_132 (select J_0 G_13))) (let ((.def_133 (= .def_131 .def_132))) (let ((.def_134 (not .def_133))) (let ((.def_135 (= .def_132 0))) (let ((.def_136 (not .def_135))) (let ((.def_139 (select I_0 F_13))) (let ((.def_140 (select I_0 E_13))) (let ((.def_153 (not (= I_0 J_0)))) (let ((.def_159 (<= (ite (<= 1 D_13) (+ D_13 (- 1)) (+ 1 (* (- 1) D_13))) 0))) (let ((.def_160 (not .def_159))) (let ((.def_173 (= .def_139 .def_140))) (let ((.def_174 (not .def_173))) (let ((.def_178 (or .def_134 .def_153))) (let ((.def_180 (= .def_140 0))) (let ((.def_193 (or .def_153 (not (= A_13 B_13))))) (let ((.def_196 (= C_13 1))) (let ((.def_197 (not .def_196))) (let ((.def_217 (not .loc.111))) (let ((.def_220 (= J_0 .y.110))) (let ((.def_223 (= I_0 .y.104))) (let ((.def_226 (= .def_132 .y.105))) (let ((.def_231 (= (+ C_13 (* (- 1) .y.103)) 1))) (let ((.def_236 (= (+ F_13 (* (- 1) .y.101)) (- 1)))) (let ((.def_241 (= (+ E_13 (* (- 1) .y.102)) (- 1)))) (let ((.def_246 (= (+ G_13 (* (- 1) .y.107)) (- 1)))) (let ((.def_251 (= (+ D_13 (* (- 1) .y.109)) 1))) (let ((.def_256 (= (+ H_13 (* (- 1) .y.108)) (- 1)))) (let ((.def_259 (= .def_131 .y.106))) (let ((.def_261 (not .def_180))) (and (not .loc.100) (or (or (or (and (or (or (or (and (or (or (or (and (or (and (or .def_135 (and .def_134 .def_136)) (and (or (not (= (+ .def_131 (+ (* (- 1) .def_132) (+ (* (- 1) .def_139) .def_140))) 0)) .def_153) .def_160)) (and .def_159 (or .def_153 (not (= (+ A_13 (+ (* (- 1) B_13) (+ .def_139 (* (- 1) .def_140)))) 0))))) .def_174) (and (and (and .def_173 (and .def_135 .def_160)) .def_178) .def_180)) (and .def_180 (and .def_178 (and .def_134 (and .def_136 (and .def_160 .def_173)))))) (and (and .def_180 (and .def_159 .def_173)) .def_193)) .def_197) (and .def_178 (and .def_160 (and .def_135 .def_196)))) (and .def_178 (and .def_134 (and .def_136 (and .def_160 .def_196))))) (and .def_193 (and .def_159 .def_196))) .loc.111) (and (and (and (and (and (and (and (and (and (and (and (and (and .def_133 (and .def_136 (and .def_173 (and .def_160 .def_197)))) .def_217) .def_220) .def_223) .def_226) .def_231) .def_236) .def_241) .def_246) .def_251) .def_256) .def_259) .def_261)) (and (or .def_134 (or .def_135 .def_159)) (and (= A_13 .y.105) (and (= B_13 .y.106) (and (= G_13 .y.107) (and (= H_13 .y.108) (and (= D_13 .y.109) (and .def_261 (and .def_241 (and .def_236 (and .def_231 (and .def_223 (and .def_220 (and .def_217 (and .def_173 .def_197))))))))))))))) (and (or .def_174 (or .def_180 .def_196)) (and (= F_13 .y.101) (and (= E_13 .y.102) (and (= C_13 .y.103) (and .def_259 (and .def_256 (and .def_251 (and .def_246 (and .def_226 (and .def_223 (and .def_220 (and .def_217 (and .def_133 (and .def_136 .def_160))))))))))))))))))))))))))))))))))))))))))))))) (state |.y.101| |.y.102| |.y.103| |.y.104| |.y.105| |.y.106| |.y.107| |.y.108| |.y.109| |.y.110| |.loc.111| |.xiv.1| |.xiv.2| |.xiv.3| |.xiv.4|))))
(assert (forall ((|F_13| Int) (|E_13| Int) (|C_13| Int) (|I_0| (Array Int Int)) (|A_13| Int) (|B_13| Int) (|G_13| Int) (|H_13| Int) (|D_13| Int) (|J_0| (Array Int Int)) (|.loc.100| Bool) (|F_0| Int) (|G_0| (Array Int Int)) (|H_0| Int) (|E_0| Int) (|.loc.111| Bool) (|.y.110| (Array Int Int)) (|.y.104| (Array Int Int)) (|.y.105| Int) (|.y.103| Int) (|.y.101| Int) (|.y.102| Int) (|.y.107| Int) (|.y.109| Int) (|.y.108| Int) (|.y.106| Int) (|.xiv.1| Int) (|.xiv.2| (Array Int Int)) (|.xiv.3| Int) (|.xiv.4| Int)) (=> (state |F_13| |E_13| |C_13| |I_0| |A_13| |B_13| |G_13| |H_13| |D_13| |J_0| |.loc.100| |F_0| |G_0| |H_0| |E_0|) (not .loc.100))))
(check-sat)
